import ReturnResults.dzn;

interface iControl
{
	in returnResult tac_getTheBall();
  	in returnResult tac_shootBall();
  	in returnResult tac_attack();

	in returnResult tac_driveToTheBall();

  	behaviour
  	{
  		on tac_getTheBall:{
  			reply(returnResult.busy);
  		}
  		on tac_getTheBall:{
  			reply(returnResult.success);
  		}
  		on tac_getTheBall:{
  			reply(returnResult.fail);
  		}
  		on tac_shootBall:{
  			reply(returnResult.busy);
  		}
  		on tac_shootBall:{
  			reply(returnResult.success);
  		}
  		on tac_shootBall:{
  			reply(returnResult.fail);
  		}
  		on tac_attack:{
  			reply(returnResult.busy);
  		}
  		on tac_attack:{
  			reply(returnResult.success);
  		}
  		on tac_attack:{
  			reply(returnResult.fail);
  		}
  		on tac_driveToTheBall:{
  			reply(returnResult.busy);
  		}
  		on tac_driveToTheBall:{
  			reply(returnResult.fail);
  		}
  		on tac_driveToTheBall:{
  			reply(returnResult.success);
  		}
	}
}

interface iBallHandling
{
	in returnResult handleTheBall();
	
	behaviour
  	{
		on handleTheBall:
		{
			reply(returnResult.success);
		}   	
		on handleTheBall:
		{
			reply(returnResult.fail);
		}	
  	}
}

interface iShooting
{
	in returnResult shootTheBall();
	
	behaviour
  	{
   		on shootTheBall:
   		{
   			reply(returnResult.success);
   		}
   		on shootTheBall:
   		{
   			reply(returnResult.fail);
   		}
   		
  	}
}



interface iWheelDriver
{
	in returnResult getToTheBall();
	in returnResult driveToLocation();
	
	behaviour
	{
	  	on getToTheBall:
   		{
   			reply(returnResult.success);
   		}
   		on getToTheBall:
   		{
   			reply(returnResult.fail);
   		}
   		on driveToLocation:
   		{
   			reply(returnResult.success);
   		}
   		on driveToLocation:
   		{
   			reply(returnResult.fail);
   		}
   		on driveToLocation:
   		{
   			reply(returnResult.success);
   		}
	}
}

interface iWorldModel
{
	in returnResult findTheBall();
	
	behaviour
	{
	  	on findTheBall:
   		{
   			reply(returnResult.success);
   		}
   		on findTheBall:
   		{
   			reply(returnResult.fail);
   		}
	}
}

interface iNavigation
{
	in returnResult Navigate();
	in returnResult getCurrentLocation();
	
	behaviour
	{
	  	on Navigate:
   		{
   			reply(returnResult.success);
   		}
   		on Navigate:
   		{
   			reply(returnResult.fail);
   		}
   		on getCurrentLocation:
   		{
   			reply(returnResult.success);
   		}
   		on getCurrentLocation:
   		{
   			reply(returnResult.fail);
   		}
	}
}

component WheelDriver
{
	provides iWheelDriver My_WheelDriver;
}

component WorldModel
{
	provides iWorldModel My_WorldModel;
}

component Navigation
{
	provides iNavigation My_Navigation;
}

component Shooting
{
	provides iShooting My_Shooting;
}

component BallHandling
{
	provides iBallHandling My_BallHandling;
}

